Version identifier: 22.1.0.0 | 2022-03-09 | 1a383f8ce
CPXPARAM_Threads                                 1
CPXPARAM_MIP_Strategy_VariableSelect             3
CPXPARAM_TimeLimit                               600
Tried aggregator 1 time.
Reduced MIP has 1825 rows, 10500 columns, and 108089 nonzeros.
Reduced MIP has 9000 binaries, 1500 generals, 0 SOSs, and 0 indicators.
Presolve time = 0.06 sec. (42.20 ticks)
Found incumbent of value 1416.000000 after 0.15 sec. (104.14 ticks)
Tried aggregator 1 time.
Detecting symmetries...
Reduced MIP has 1825 rows, 10500 columns, and 108089 nonzeros.
Reduced MIP has 9000 binaries, 1500 generals, 0 SOSs, and 0 indicators.
Presolve time = 0.07 sec. (52.08 ticks)
Probing time = 0.01 sec. (4.72 ticks)
Clique table members: 300.
MIP emphasis: balance optimality and feasibility.
MIP search method: dynamic search.
Parallel mode: none, using 1 thread.
Root relaxation solution time = 0.36 sec. (327.45 ticks)

        Nodes                                         Cuts/
   Node  Left     Objective  IInf  Best Integer    Best Bound    ItCnt     Gap

*     0+    0                         1416.0000        0.0000           100.00%
      0     0        0.0000  1236     1416.0000        0.0000     2107  100.00%
*     0+    0                            0.0000        0.0000             0.00%
      0     0        cutoff              0.0000        0.0000     2107    0.00%
Elapsed time = 2.90 sec. (3560.74 ticks, tree = 0.01 MB, solutions = 2)

Root node processing (before b&c):
  Real time             =    2.90 sec. (3561.12 ticks)
Sequential b&c:
  Real time             =    0.00 sec. (0.00 ticks)
                          ------------
Total (root+branch&cut) =    2.90 sec. (3561.12 ticks)
Primal number of violations:	0
Dual number of violations:	0
Status:	Optimal
Time:	2.93
Sequence:
	13
	20
	13
	9
	1
	1
	13
	1
	11
	7
	1
	2
	16
	24
	17
	1
	8
	1
	22
	3
	21
	21
	14
	17
	21
	21
	14
	21
	17
	21
	6
	1
	5
	4
	5
	5
	11
	20
	19
	5
	24
	17
	14
	13
	21
	18
	17
	18
	7
	15
	17
	21
	17
	17
	17
	10
	12
	6
	1
	21
	15
	10
	16
	19
	7
	22
	19
	24
	0
	11
	23
	11
	0
	21
	6
	3
	1
	16
	9
	16
	7
	8
	7
	14
	5
	2
	18
	16
	9
	1
	23
	17
	23
	14
	16
	16
	13
	23
	23
	14
	23
	20
	14
	23
	23
	4
	1
	11
	23
	3
	20
	20
	4
	0
	15
	15
	20
	7
	17
	15
	15
	10
	15
	15
	15
	10
	15
	22
	24
	14
	18
	21
	8
	24
	16
	3
	11
	22
	16
	14
	20
	23
	9
	1
	15
	23
	1
	2
	21
	3
	2
	16
	24
	9
	0
	23
	2
	11
	11
	20
	1
	11
	11
	8
	0
	22
	14
	10
	3
	14
	9
	9
	17
	21
	24
	9
	3
	8
	9
	9
	3
	8
	19
	18
	5
	6
	10
	12
	6
	5
	14
	0
	5
	6
	7
	24
	11
	24
	7
	11
	24
	5
	19
	18
	2
	8
	11
	11
	0
	19
	0
	19
	19
	19
	0
	19
	19
	6
	24
	0
	8
	6
	6
	16
	0
	6
	6
	19
	6
	0
	12
	4
	12
	12
	17
	20
	17
	12
	12
	4
	4
	0
	18
	4
	1
	18
	4
	12
	4
	1
	4
	10
	0
	8
	11
	22
	10
	15
	16
	16
	2
	20
	2
	2
	8
	18
	8
	10
	2
	2
	12
	7
	2
	6
	6
	21
	12
	17
	12
	20
	4
	4
	0
	3
	16
	9
	9
	1
	20
	11
	5
	9
	8
	12
	9
	24
	23
	3
	24
	11
